4
Lattice="2.91754750863765 -8.724112155320794e-05 0.0008669230482275584 -1.4588500656908416 2.526863984150743 -0.0006884684334044538 0.0011785330992449875 -0.0004206676364192771 4.838481312112912" Properties=species:S:1:pos:R:3 ferrofinder_structure_id=polar_input pbc="T T T"
Al       1.46324196       0.84415830       2.45766224
Al       0.00619448       1.68563215       4.87584523
N        1.46496931       0.84325297       4.23492740
N        0.00475512       1.68639014       1.81420322
4
Lattice="2.91754750863765 -8.724112155320794e-05 0.0008669230482275584 -1.4588500656908416 2.526863984150743 -0.0006884684334044538 0.0011785330992449875 -0.0004206676364192771 4.838481312112912" Properties=species:S:1:pos:R:3 ferrofinder_structure_id=incoming_00_000 pbc="T T T"
Al       1.46324196       0.84415830       2.45766224
Al       0.00501594       1.68605282       0.03736392
N        1.46496931       0.84325297       4.23492740
N        0.00475512       1.68639014       1.81420322
4
Lattice="2.91754750863765 -8.724112155320794e-05 0.0008669230482275584 -1.4588500656908416 2.526863984150743 -0.0006884684334044538 0.0011785330992449875 -0.0004206676364192771 4.838481312112912" Properties=species:S:1:pos:R:3 ferrofinder_structure_id=incoming_00_001 pbc="T T T"
Al       1.46324196       0.84415830       2.45766224
Al       0.00501594       1.68605282       0.03736392
N        1.46495131       0.84326217       4.31520095
N        0.00473712       1.68639935       1.89447677
4
Lattice="2.91754750863765 -8.724112155320794e-05 0.0008669230482275584 -1.4588500656908416 2.526863984150743 -0.0006884684334044538 0.0011785330992449875 -0.0004206676364192771 4.838481312112912" Properties=species:S:1:pos:R:3 ferrofinder_structure_id=incoming_00_002 pbc="T T T"
Al       1.46324196       0.84415830       2.45766224
Al       0.00501594       1.68605282       0.03736392
N        1.46493331       0.84327138       4.39547451
N        0.00471912       1.68640855       1.97475032
4
Lattice="2.91754750863765 -8.724112155320794e-05 0.0008669230482275584 -1.4588500656908416 2.526863984150743 -0.0006884684334044538 0.0011785330992449875 -0.0004206676364192771 4.838481312112912" Properties=species:S:1:pos:R:3 ferrofinder_structure_id=incoming_00_003 pbc="T T T"
Al       1.46324196       0.84415830       2.45766224
Al       0.00501594       1.68605282       0.03736392
N        1.46491531       0.84328059       4.47574806
N        0.00470113       1.68641776       2.05502388
4
Lattice="2.91754750863765 -8.724112155320794e-05 0.0008669230482275584 -1.4588500656908416 2.526863984150743 -0.0006884684334044538 0.0011785330992449875 -0.0004206676364192771 4.838481312112912" Properties=species:S:1:pos:R:3 ferrofinder_structure_id=incoming_00_004 pbc="T T T"
Al       1.46324196       0.84415830       2.45766224
Al       0.00501594       1.68605282       0.03736392
N        1.46489731       0.84328980       4.55602161
N        0.00468313       1.68642697       2.13529743
4
Lattice="2.91754750863765 -8.724112155320794e-05 0.0008669230482275584 -1.4588500656908416 2.526863984150743 -0.0006884684334044538 0.0011785330992449875 -0.0004206676364192771 4.838481312112912" Properties=species:S:1:pos:R:3 ferrofinder_structure_id=incoming_00_005 pbc="T T T"
Al       1.46324196       0.84415830       2.45766224
Al       0.00501594       1.68605282       0.03736392
N        1.46487931       0.84329901       4.63629517
N        0.00466513       1.68643618       2.21557098
4
Lattice="2.91754750863765 -8.724112155320794e-05 0.0008669230482275584 -1.4588500656908416 2.526863984150743 -0.0006884684334044538 0.0011785330992449875 -0.0004206676364192771 4.838481312112912" Properties=species:S:1:pos:R:3 ferrofinder_structure_id=incoming_00_006 pbc="T T T"
Al       1.46324196       0.84415830       2.45766224
Al       0.00501594       1.68605282       0.03736392
N        1.46486131       0.84330822       4.71656872
N        0.00464713       1.68644539       2.29584454
4
Lattice="2.91754750863765 -8.724112155320794e-05 0.0008669230482275584 -1.4588500656908416 2.526863984150743 -0.0006884684334044538 0.0011785330992449875 -0.0004206676364192771 4.838481312112912" Properties=species:S:1:pos:R:3 ferrofinder_structure_id=incoming_00_007 pbc="T T T"
Al       1.46324196       0.84415830       2.45766224
Al       0.00501594       1.68605282       0.03736392
N        1.46484331       0.84331743       4.79684228
N        0.00462913       1.68645460       2.37611809
4
Lattice="2.91754750863765 -8.724112155320794e-05 0.0008669230482275584 -1.4588500656908416 2.526863984150743 -0.0006884684334044538 0.0011785330992449875 -0.0004206676364192771 4.838481312112912" Properties=species:S:1:pos:R:3 ferrofinder_structure_id=incoming_00_008 pbc="T T T"
Al       1.46324196       0.84415830       2.45766224
Al       0.00501594       1.68605282       0.03736392
N        1.46364678       0.84374731       0.03863452
N        0.00461113       1.68646381       2.45639165
4
Lattice="2.91754750863765 -8.724112155320794e-05 0.0008669230482275584 -1.4588500656908416 2.526863984150743 -0.0006884684334044538 0.0011785330992449875 -0.0004206676364192771 4.838481312112912" Properties=species:S:1:pos:R:3 ferrofinder_structure_id=reflected_00_001 pbc="T T T"
Al       1.46324196       0.84415830       2.45766224
Al       0.00501594       1.68605282       0.03736392
N        1.46362878       0.84375652       0.11890807
N        0.00459313       1.68647302       2.53666520
4
Lattice="2.91754750863765 -8.724112155320794e-05 0.0008669230482275584 -1.4588500656908416 2.526863984150743 -0.0006884684334044538 0.0011785330992449875 -0.0004206676364192771 4.838481312112912" Properties=species:S:1:pos:R:3 ferrofinder_structure_id=reflected_00_002 pbc="T T T"
Al       1.46324196       0.84415830       2.45766224
Al       0.00501594       1.68605282       0.03736392
N        1.46361078       0.84376572       0.19918163
N        0.00457513       1.68648223       2.61693875
4
Lattice="2.91754750863765 -8.724112155320794e-05 0.0008669230482275584 -1.4588500656908416 2.526863984150743 -0.0006884684334044538 0.0011785330992449875 -0.0004206676364192771 4.838481312112912" Properties=species:S:1:pos:R:3 ferrofinder_structure_id=reflected_00_003 pbc="T T T"
Al       1.46324196       0.84415830       2.45766224
Al       0.00501594       1.68605282       0.03736392
N        1.46359278       0.84377493       0.27945518
N        0.00455713       1.68649144       2.69721231
4
Lattice="2.91754750863765 -8.724112155320794e-05 0.0008669230482275584 -1.4588500656908416 2.526863984150743 -0.0006884684334044538 0.0011785330992449875 -0.0004206676364192771 4.838481312112912" Properties=species:S:1:pos:R:3 ferrofinder_structure_id=reflected_00_004 pbc="T T T"
Al       1.46324196       0.84415830       2.45766224
Al       0.00501594       1.68605282       0.03736392
N        1.46357478       0.84378414       0.35972873
N        0.00453913       1.68650065       2.77748586
4
Lattice="2.91754750863765 -8.724112155320794e-05 0.0008669230482275584 -1.4588500656908416 2.526863984150743 -0.0006884684334044538 0.0011785330992449875 -0.0004206676364192771 4.838481312112912" Properties=species:S:1:pos:R:3 ferrofinder_structure_id=reflected_00_005 pbc="T T T"
Al       1.46324196       0.84415830       2.45766224
Al       0.00501594       1.68605282       0.03736392
N        1.46355678       0.84379335       0.44000229
N        0.00452113       1.68650985       2.85775941
4
Lattice="2.91754750863765 -8.724112155320794e-05 0.0008669230482275584 -1.4588500656908416 2.526863984150743 -0.0006884684334044538 0.0011785330992449875 -0.0004206676364192771 4.838481312112912" Properties=species:S:1:pos:R:3 ferrofinder_structure_id=reflected_00_006 pbc="T T T"
Al       1.46324196       0.84415830       2.45766224
Al       0.00501594       1.68605282       0.03736392
N        1.46353878       0.84380256       0.52027584
N        0.00450313       1.68651906       2.93803297
4
Lattice="2.91754750863765 -8.724112155320794e-05 0.0008669230482275584 -1.4588500656908416 2.526863984150743 -0.0006884684334044538 0.0011785330992449875 -0.0004206676364192771 4.838481312112912" Properties=species:S:1:pos:R:3 ferrofinder_structure_id=reflected_00_007 pbc="T T T"
Al       1.46324196       0.84415830       2.45766224
Al       0.00501594       1.68605282       0.03736392
N        1.46352078       0.84381177       0.60054939
N        0.00448513       1.68652827       3.01830652
4
Lattice="2.91754750863765 -8.724112155320794e-05 0.0008669230482275584 -1.4588500656908416 2.526863984150743 -0.0006884684334044538 0.0011785330992449875 -0.0004206676364192771 4.838481312112912" Properties=species:S:1:pos:R:3 ferrofinder_structure_id=reflected_00_008 pbc="T T T"
Al       1.46324196       0.84415830       2.45766224
Al       0.00501594       1.68605282       0.03736392
N        1.46350278       0.84382098       0.68082295
N        0.00446713       1.68653748       3.09858008
4
Lattice="2.91754750863765 -8.724112155320794e-05 0.0008669230482275584 -1.4588500656908416 2.526863984150743 -0.0006884684334044538 0.0011785330992449875 -0.0004206676364192771 4.838481312112912" Properties=species:S:1:pos:R:3 ferrofinder_structure_id=inversion_parent_endpoint_00 pbc="T T T"
Al       1.45875636       0.84233594       2.41985872
Al       0.00053035       1.68423047      -0.00043960
N        1.46033971       0.84150429       4.83931230
N        0.00012553       1.68464146       2.41858812
4
Lattice="2.9148567545270425 -8.341433995764705e-05 0.0009213272827623667 -1.4575013737585774 2.524541977527753 -0.0007302840817283906 0.0012652665884040875 -0.0004474437169688893 4.846574000329363" Properties=species:S:1:pos:R:3 ferrofinder_structure_id=bec_projection_00 pbc="T T T"
Al       1.46210779       0.84332421       2.51213767
Al       0.00537912       1.68434126       0.08759575
N        1.46350003       0.84251123       4.19193722
N        0.00444737       1.68498743       1.76680171
4
Lattice="2.9148567545270425 -8.341433995764705e-05 0.0009213272827623667 -1.4575013737585774 2.524541977527753 -0.0007302840817283906 0.0012652665884040875 -0.0004474437169688893 4.846574000329363" Properties=species:S:1:pos:R:3 ferrofinder_structure_id=inversion_parent_bec_00_00 pbc="T T T"
Al       1.45735834       0.84160890       2.42400998
Al       0.00062967       1.68262594      -0.00053194
N        1.45915297       0.84065560       4.84759378
N        0.00010031       1.68313180       2.42245827
4
Lattice="2.938635588061146 -0.00010732013916034566 0.00012136846337952784 -1.469411506028855 2.5450557694904683 -8.913853966414036e-05 -3.2818692803095054e-05 4.522417525954076e-06 4.7731011010073585" Properties=species:S:1:pos:R:3 ferrofinder_structure_id=bec_projection_01 pbc="T T T"
Al       1.47379086       0.85011750       2.35037454
Al       0.00470892       1.69838348       4.73684571
N        1.47401454       0.84998009       4.25046291
N        0.00448319       1.69852244       1.86382973
4
Lattice="2.9148499253709774 -1.811299835861598e-05 0.014606588018144202 -1.4574426784147827 2.524539224089938 -0.00755874453945926 0.0239849386324512 -0.00041958246912177186 4.846144418939336" Properties=species:S:1:pos:R:3 ferrofinder_structure_id=bec_projection_02 pbc="T T T"
Al       1.39191077       0.84209171       2.51363966
Al      -0.07639296       1.68563539       0.08233222
N        1.56524375       0.84180959       4.20350925
N        0.09489501       1.68580223       1.77203310
4
Lattice="2.943868119861016 2.8311767084380337e-05 0.02947052898400538 -1.4719136828358197 2.5517194068762428 -0.014662374760342801 0.049003184833952655 0.00019743551304023896 4.752929026066905" Properties=species:S:1:pos:R:3 ferrofinder_structure_id=bec_projection_03 pbc="T T T"
Al       1.43214455       0.85011117       2.34975707
Al      -0.01507834       1.70553643       4.71134943
N        1.58880462       0.85499919       4.25276561
N        0.09224471       1.70050844       1.86158713
